20 2
7 9
0 0 0 9 2 3 4 5 6 7 8 12 19
13 2 2 1 13
12 2 3 1 16
19 2 3 3 14 9 15
19 2 2 1 13
14 2 2 1 18
5 2 2 1 14
10 2 2 1 20
8 2 3 2 10 16
15 2 2 2 18 11
10 2 2 2 17 18
16 2 2 1 20
11 2 2 1 17
17 2 3 1 20
5 2 2 1 20
11 2 3 1 20
17 2 3 1 20
17 2 2 1 20
15 2 2 1 20
0 0 0 0
